n = 30;
rows = 72;
supports = [|
  {1},2..8,
 |{1},24..30,
 |{2},{1},
 |{2},3..9,
 |{2},25..30,
 |{3},1..2,
 |{3},4..10,
 |{3},26..30,
 |{4},1..3,
 |{4},5..11,
 |{4},27..30,
 |{5},1..4,
 |{5},6..12,
 |{5},28..30,
 |{6},1..5,
 |{6},7..13,
 |{6},29..30,
 |{7},1..6,
 |{7},8..14,
 |{7},{30},
 |{8},1..7,
 |{8},9..15,
 |{9},2..8,
 |{9},10..16,
 |{10},3..9,
 |{10},11..17,
 |{11},4..10,
 |{11},12..18,
 |{12},5..11,
 |{12},13..19,
 |{13},6..12,
 |{13},14..20,
 |{14},7..13,
 |{14},15..21,
 |{15},8..14,
 |{15},16..22,
 |{16},9..15,
 |{16},17..23,
 |{17},10..16,
 |{17},18..24,
 |{18},11..17,
 |{18},19..25,
 |{19},12..18,
 |{19},20..26,
 |{20},13..19,
 |{20},21..27,
 |{21},14..20,
 |{21},22..28,
 |{22},15..21,
 |{22},23..29,
 |{23},16..22,
 |{23},24..30,
 |{24},17..23,
 |{24},25..30,
 |{24},{1},
 |{25},18..24,
 |{25},26..30,
 |{25},1..2,
 |{26},19..25,
 |{26},27..30,
 |{26},1..3,
 |{27},20..26,
 |{27},28..30,
 |{27},1..4,
 |{28},21..27,
 |{28},29..30,
 |{28},1..5,
 |{29},22..28,
 |{29},{30},
 |{29},1..6,
 |{30},23..29,
 |{30},1..7 |];

t = 103;

indexes = [|
    0,5,
  | 0,6,
  | 0,9,
  | 0,10,
  | 0,11,
  | 0,14,
  | 0,22,
  | 1,16,
  | 1,20,
  | 1,23,
  | 1,24,
  | 1,28,
  | 2,5,
  | 2,11,
  | 2,14,
  | 2,17,
  | 2,18,
  | 2,22,
  | 2,29,
  | 3,8,
  | 3,16,
  | 3,19,
  | 3,24,
  | 3,25,
  | 3,26,
  | 3,27,
  | 4,7,
  | 4,12,
  | 4,15,
  | 4,20,
  | 4,28,
  | 5,8,
  | 5,9,
  | 5,14,
  | 5,17,
  | 5,19,
  | 5,25,
  | 5,27,
  | 6,9,
  | 6,10,
  | 6,19,
  | 6,25,
  | 7,12,
  | 7,13,
  | 7,15,
  | 7,18,
  | 7,21,
  | 7,29,
  | 8,13,
  | 8,14,
  | 8,18,
  | 8,21,
  | 8,26,
  | 8,27,
  | 8,29,
  | 9,10,
  | 9,11,
  | 9,14,
  | 9,22,
  | 10,19,
  | 10,25,
  | 11,17,
  | 11,22,
  | 12,15,
  | 12,20,
  | 12,28,
  | 13,15,
  | 13,16,
  | 13,20,
  | 13,21,
  | 13,24,
  | 13,27,
  | 13,28,
  | 14,17,
  | 14,19,
  | 14,25,
  | 14,27,
  | 15,18,
  | 15,21,
  | 15,29,
  | 16,21,
  | 16,23,
  | 16,24,
  | 16,26,
  | 17,18,
  | 17,22,
  | 17,29,
  | 18,27,
  | 18,29,
  | 19,25,
  | 19,26,
  | 20,21,
  | 20,23,
  | 20,28,
  | 21,24,
  | 21,27,
  | 21,28,
  | 23,24,
  | 23,28,
  | 24,26,
  | 25,26,
  | 26,27,
  | 27,29 |];

